
  22   10
  10   10   10   10   10   10   10   10   10   10

   0   0   0   0   0   0   0   0   0   0   0   5 2 6 9 10 15 
   3  10  10  10  10  10  10  10  10  10  10   3 21 20 3 
   7  10  10  10  10  10  10  10  10  10  10   2 5 4 
   8  10  10  10  10  10  10  10  10  10  10   4 19 14 8 7 
   2  10  10  10  10  10  10  10  10  10  10   4 19 14 12 11 
   5  10  10  10  10  10  10  10  10  10  10   3 21 20 7 
   5  10  10  10  10  10  10  10  10  10  10   2 13 12 
   5  10  10  10  10  10  10  10  10  10  10   1 11 
   2  10  10  10  10  10  10  10  10  10  10   1 11 
   5  10  10  10  10  10  10  10  10  10  10   1 11 
   1  10  10  10  10  10  10  10  10  10  10   3 18 17 16 
  10  10  10  10  10  10  10  10  10  10  10   2 17 16 
  10  10  10  10  10  10  10  10  10  10  10   1 16 
   1  10  10  10  10  10  10  10  10  10  10   1 16 
   6  10  10  10  10  10  10  10  10  10  10   1 17 
   3  10  10  10  10  10  10  10  10  10  10   1 22
   4  10  10  10  10  10  10  10  10  10  10   1 22
   1  10  10  10  10  10  10  10  10  10  10   1 22
   4  10  10  10  10  10  10  10  10  10  10   1 22
   7  10  10  10  10  10  10  10  10  10  10   1 22
   5  10  10  10  10  10  10  10  10  10  10   1 22
   0   0   0   0   0   0   0   0   0   0   0   0 
